c read Graph
c width = 65
c time = 118 ms
c width = 4
c time = 173 ms
c width = 4
c time = 4736 ms
s td 72 5 76
b 1 1 2 20
b 2 2 3 20 21
b 3 17 18 37 38
b 4 3 20 21 39
b 5 17 37 38 57
b 6 39 40 59 60
b 7 56 57 74 75
b 8 3 4 5 23
b 9 5 6 7 25
b 10 7 8 9 27
b 11 9 10 11 29
b 12 11 12 13 31
b 13 13 14 15 33
b 14 15 16 17 35
b 15 3 21 22 39 40
b 16 3 22 39 40 60
b 17 3 22 40 41 60
b 18 3 22 23 41 60
b 19 3 5 23 41 60
b 20 5 23 41 42 60
b 21 5 23 24 42 60
b 22 5 24 42 60 61
b 23 5 24 42 43 61
b 24 5 24 25 43 61
b 25 5 7 25 43 61
b 26 7 25 43 61 62
b 27 7 25 43 44 62
b 28 7 25 26 44 62
b 29 7 26 44 62 63
b 30 7 26 44 45 63
b 31 7 26 27 45 63
b 32 7 9 27 45 63
b 33 9 27 45 63 64
b 34 9 27 45 46 64
b 35 9 27 28 46 64
b 36 9 28 46 64 65
b 37 9 28 46 47 65
b 38 9 28 29 47 65
b 39 9 11 29 47 65
b 40 11 29 47 65 66
b 41 11 29 47 48 66
b 42 11 29 30 48 66
b 43 11 30 48 66 67
b 44 11 30 48 49 67
b 45 11 30 31 49 67
b 46 11 13 31 49 67
b 47 13 31 49 67 68
b 48 13 31 49 50 68
b 49 13 31 32 50 68
b 50 13 32 50 68 69
b 51 13 32 50 51 69
b 52 13 32 33 51 69
b 53 13 15 33 51 69
b 54 15 33 51 69 70
b 55 15 33 51 52 70
b 56 15 33 34 52 70
b 57 15 34 52 70 71
b 58 15 34 52 53 71
b 59 15 34 35 53 71
b 60 15 17 35 53 71
b 61 17 35 53 71 72
b 62 17 35 53 54 72
b 63 17 35 36 54 72
b 64 17 36 54 72 73
b 65 17 36 54 55 73
b 66 17 36 37 55 73
b 67 17 37 55 57 73
b 68 37 55 56 57 73
b 69 55 56 57 73 74
b 70 57 75 76
b 71 39 58 59
b 72 18 19 38
1 2
2 4
3 72
3 5
4 15
5 67
6 71
6 16
7 70
7 69
8 19
9 25
10 32
11 39
12 46
13 53
14 60
15 16
16 17
17 18
18 19
19 20
20 21
21 22
22 23
23 24
24 25
25 26
26 27
27 28
28 29
29 30
30 31
31 32
32 33
33 34
34 35
35 36
36 37
37 38
38 39
39 40
40 41
41 42
42 43
43 44
44 45
45 46
46 47
47 48
48 49
49 50
50 51
51 52
52 53
53 54
54 55
55 56
56 57
57 58
58 59
59 60
60 61
61 62
62 63
63 64
64 65
65 66
66 67
67 68
68 69
